(set-logic HORN)
(declare-fun assign_29_5_287_abs01 (Int Int Int Int Int Int) Bool)
(declare-fun assert_28_5_278_abs01 (Int Int Int Int Int Int) Bool)
(declare-fun assert_27_12_254_abs01 (Int Int Int Int Int Int) Bool)
(declare-fun while_26_1_290_abs01 (Int Int Int Int Int Int) Bool)
(declare-fun assign_25_1_210_abs01 (Int Int Int Int Int Int) Bool)
(declare-fun assign_22_5_201_abs01 (Int Int Int Int Int Int) Bool)
(declare-fun arrayassign_21_5_192_abs01 (Int Int Int Int Int Int) Bool)
(declare-fun assert_20_12_172_abs01 (Int Int Int Int Int Int) Bool)
(declare-fun while_19_1_204_abs01 (Int Int Int Int Int Int) Bool)
(declare-fun assign_18_1_128_abs01 (Int Int Int Int Int Int) Bool)
(declare-fun assign_15_5_119_abs01 (Int Int Int Int Int Int) Bool)
(declare-fun arrayassign_14_5_110_abs01 (Int Int Int Int Int Int) Bool)
(declare-fun assert_13_12_96_abs01 (Int Int Int Int Int Int) Bool)
(declare-fun while_12_1_122_abs01 (Int Int Int Int Int Int) Bool)
(declare-fun assign_11_8_58_abs01 (Int Int Int Int Int Int) Bool)
(declare-fun assign_9_1_52_abs01 (Int Int Int Int Int Int) Bool)
(declare-fun end_abs01 (Int Int Int Int Int Int) Bool)
(declare-fun start_abs01 (Int Int Int Int Int Int) Bool)
(assert (forall ((a_copy (Array Int Int)) (a (Array Int Int)) (N Int) (i Int) (vabs_f_f Int) (vabs_s_f_f Int)) (start_abs01 vabs_f_f (select a_copy vabs_f_f) vabs_s_f_f (select a vabs_s_f_f) N i)))
(assert (forall ((i Int) (N Int) (a (Array Int Int)) (a_copy (Array Int Int)) (vabs_0_f_f Int) (vabs_0_s_f_f Int)) (=> (start_abs01 vabs_0_f_f (select a_copy vabs_0_f_f) vabs_0_s_f_f (select a vabs_0_s_f_f) N i) (assign_9_1_52_abs01 vabs_0_f_f (select a_copy vabs_0_f_f) vabs_0_s_f_f (select a vabs_0_s_f_f) N i))))
(assert (forall ((rnd Int) (i Int) (N Int) (a (Array Int Int)) (a_copy (Array Int Int)) (vabs_0_f_f Int) (vabs_0_s_f_f Int)) (=> (assign_9_1_52_abs01 vabs_0_f_f (select a_copy vabs_0_f_f) vabs_0_s_f_f (select a vabs_0_s_f_f) N i) (assign_11_8_58_abs01 vabs_0_f_f (select a_copy vabs_0_f_f) vabs_0_s_f_f (select a vabs_0_s_f_f) rnd i))))
(assert (forall ((i Int) (N Int) (a (Array Int Int)) (a_copy (Array Int Int)) (vabs_0_f_f Int) (vabs_0_s_f_f Int)) (=> (assign_11_8_58_abs01 vabs_0_f_f (select a_copy vabs_0_f_f) vabs_0_s_f_f (select a vabs_0_s_f_f) N i) (while_12_1_122_abs01 vabs_0_f_f (select a_copy vabs_0_f_f) vabs_0_s_f_f (select a vabs_0_s_f_f) N 0))))
(assert (forall ((a_copy (Array Int Int)) (a (Array Int Int)) (N Int) (i Int) (vabs_0_f_f Int) (vabs_0_s_f_f Int)) (=> (and (while_12_1_122_abs01 vabs_0_f_f (select a_copy vabs_0_f_f) vabs_0_s_f_f (select a vabs_0_s_f_f) N i) (< i N)) (assert_13_12_96_abs01 vabs_0_f_f (select a_copy vabs_0_f_f) vabs_0_s_f_f (select a vabs_0_s_f_f) N i))))
(assert (forall ((a_copy (Array Int Int)) (a (Array Int Int)) (N Int) (i Int) (vabs_0_f_f Int) (vabs_0_s_f_f Int)) (=> (and (while_12_1_122_abs01 vabs_0_f_f (select a_copy vabs_0_f_f) vabs_0_s_f_f (select a vabs_0_s_f_f) N i) (not (< i N))) (assign_18_1_128_abs01 vabs_0_f_f (select a_copy vabs_0_f_f) vabs_0_s_f_f (select a vabs_0_s_f_f) N i))))
(assert (forall ((k Int) (i Int) (N Int) (a (Array Int Int)) (a_copy (Array Int Int))) (=> (and (assert_13_12_96_abs01 k (select a_copy k) k (select a k) N i) (<= 0 k) (< k i)) (= (select a_copy k) (select a k)))))
(assert (forall ((i Int) (N Int) (a (Array Int Int)) (a_copy (Array Int Int)) (vabs_0_f_f Int) (vabs_0_s_f_f Int)) (=> (assert_13_12_96_abs01 vabs_0_f_f (select a_copy vabs_0_f_f) vabs_0_s_f_f (select a vabs_0_s_f_f) N i) (arrayassign_14_5_110_abs01 vabs_0_f_f (select a_copy vabs_0_f_f) vabs_0_s_f_f (select a vabs_0_s_f_f) N i))))
(assert (forall ((i Int) (N Int) (a (Array Int Int)) (a_copy (Array Int Int)) (vabs_0_f_f Int) (vabs_0_s_f_f Int)) (=> (and (arrayassign_14_5_110_abs01 vabs_0_f_f (select a_copy vabs_0_f_f) vabs_0_s_f_f (select a vabs_0_s_f_f) N i) (arrayassign_14_5_110_abs01 vabs_0_f_f (select a_copy vabs_0_f_f) i (select a i) N i)) (assign_15_5_119_abs01 vabs_0_f_f (select (store a_copy i (select a i)) vabs_0_f_f) vabs_0_s_f_f (select a vabs_0_s_f_f) N i))))
(assert (forall ((i Int) (N Int) (a (Array Int Int)) (a_copy (Array Int Int)) (vabs_0_f_f Int) (vabs_0_s_f_f Int)) (=> (assign_15_5_119_abs01 vabs_0_f_f (select a_copy vabs_0_f_f) vabs_0_s_f_f (select a vabs_0_s_f_f) N i) (while_12_1_122_abs01 vabs_0_f_f (select a_copy vabs_0_f_f) vabs_0_s_f_f (select a vabs_0_s_f_f) N (+ i 1)))))
(assert (forall ((i Int) (N Int) (a (Array Int Int)) (a_copy (Array Int Int)) (vabs_0_f_f Int) (vabs_0_s_f_f Int)) (=> (assign_18_1_128_abs01 vabs_0_f_f (select a_copy vabs_0_f_f) vabs_0_s_f_f (select a vabs_0_s_f_f) N i) (while_19_1_204_abs01 vabs_0_f_f (select a_copy vabs_0_f_f) vabs_0_s_f_f (select a vabs_0_s_f_f) N 0))))
(assert (forall ((a_copy (Array Int Int)) (a (Array Int Int)) (N Int) (i Int) (vabs_0_f_f Int) (vabs_0_s_f_f Int)) (=> (and (while_19_1_204_abs01 vabs_0_f_f (select a_copy vabs_0_f_f) vabs_0_s_f_f (select a vabs_0_s_f_f) N i) (< i N)) (assert_20_12_172_abs01 vabs_0_f_f (select a_copy vabs_0_f_f) vabs_0_s_f_f (select a vabs_0_s_f_f) N i))))
(assert (forall ((a_copy (Array Int Int)) (a (Array Int Int)) (N Int) (i Int) (vabs_0_f_f Int) (vabs_0_s_f_f Int)) (=> (and (while_19_1_204_abs01 vabs_0_f_f (select a_copy vabs_0_f_f) vabs_0_s_f_f (select a vabs_0_s_f_f) N i) (not (< i N))) (assign_25_1_210_abs01 vabs_0_f_f (select a_copy vabs_0_f_f) vabs_0_s_f_f (select a vabs_0_s_f_f) N i))))
(assert (forall ((k Int) (i Int) (N Int) (a (Array Int Int)) (a_copy (Array Int Int))) (=> (and (assert_20_12_172_abs01 (- (- N k) 1) (select a_copy (- (- N k) 1)) k (select a k) N i) (<= 0 k) (< k i)) (= (select a_copy (- (- N k) 1)) (select a k)))))
(assert (forall ((i Int) (N Int) (a (Array Int Int)) (a_copy (Array Int Int)) (vabs_0_f_f Int) (vabs_0_s_f_f Int)) (=> (assert_20_12_172_abs01 vabs_0_f_f (select a_copy vabs_0_f_f) vabs_0_s_f_f (select a vabs_0_s_f_f) N i) (arrayassign_21_5_192_abs01 vabs_0_f_f (select a_copy vabs_0_f_f) vabs_0_s_f_f (select a vabs_0_s_f_f) N i))))
(assert (forall ((i Int) (N Int) (a (Array Int Int)) (a_copy (Array Int Int)) (vabs_0_f_f Int) (vabs_0_s_f_f Int)) (=> (and (arrayassign_21_5_192_abs01 (- (- N i) 1) (select a_copy (- (- N i) 1)) vabs_0_s_f_f (select a vabs_0_s_f_f) N i) (arrayassign_21_5_192_abs01 vabs_0_f_f (select a_copy vabs_0_f_f) vabs_0_s_f_f (select a vabs_0_s_f_f) N i)) (assign_22_5_201_abs01 vabs_0_f_f (select a_copy vabs_0_f_f) vabs_0_s_f_f (select (store a i (select a_copy (- (- N i) 1))) vabs_0_s_f_f) N i))))
(assert (forall ((i Int) (N Int) (a (Array Int Int)) (a_copy (Array Int Int)) (vabs_0_f_f Int) (vabs_0_s_f_f Int)) (=> (assign_22_5_201_abs01 vabs_0_f_f (select a_copy vabs_0_f_f) vabs_0_s_f_f (select a vabs_0_s_f_f) N i) (while_19_1_204_abs01 vabs_0_f_f (select a_copy vabs_0_f_f) vabs_0_s_f_f (select a vabs_0_s_f_f) N (+ i 1)))))
(assert (forall ((i Int) (N Int) (a (Array Int Int)) (a_copy (Array Int Int)) (vabs_0_f_f Int) (vabs_0_s_f_f Int)) (=> (assign_25_1_210_abs01 vabs_0_f_f (select a_copy vabs_0_f_f) vabs_0_s_f_f (select a vabs_0_s_f_f) N i) (while_26_1_290_abs01 vabs_0_f_f (select a_copy vabs_0_f_f) vabs_0_s_f_f (select a vabs_0_s_f_f) N 0))))
(assert (forall ((a_copy (Array Int Int)) (a (Array Int Int)) (N Int) (i Int) (vabs_0_f_f Int) (vabs_0_s_f_f Int)) (=> (and (while_26_1_290_abs01 vabs_0_f_f (select a_copy vabs_0_f_f) vabs_0_s_f_f (select a vabs_0_s_f_f) N i) (< i N)) (assert_27_12_254_abs01 vabs_0_f_f (select a_copy vabs_0_f_f) vabs_0_s_f_f (select a vabs_0_s_f_f) N i))))
(assert (forall ((a_copy (Array Int Int)) (a (Array Int Int)) (N Int) (i Int) (vabs_0_f_f Int) (vabs_0_s_f_f Int)) (=> (and (while_26_1_290_abs01 vabs_0_f_f (select a_copy vabs_0_f_f) vabs_0_s_f_f (select a vabs_0_s_f_f) N i) (not (< i N))) (end_abs01 vabs_0_f_f (select a_copy vabs_0_f_f) vabs_0_s_f_f (select a vabs_0_s_f_f) N i))))
(assert (forall ((k Int) (i Int) (N Int) (a (Array Int Int)) (a_copy (Array Int Int))) (=> (and (assert_27_12_254_abs01 (- (- N k) 1) (select a_copy (- (- N k) 1)) k (select a k) N i) (<= 0 k) (< k N)) (= (select a_copy (- (- N k) 1)) (select a k)))))
(assert (forall ((i Int) (N Int) (a (Array Int Int)) (a_copy (Array Int Int)) (vabs_0_f_f Int) (vabs_0_s_f_f Int)) (=> (assert_27_12_254_abs01 vabs_0_f_f (select a_copy vabs_0_f_f) vabs_0_s_f_f (select a vabs_0_s_f_f) N i) (assert_28_5_278_abs01 vabs_0_f_f (select a_copy vabs_0_f_f) vabs_0_s_f_f (select a vabs_0_s_f_f) N i))))
(assert (forall ((i Int) (N Int) (a (Array Int Int)) (a_copy (Array Int Int))) (=> (assert_28_5_278_abs01 (- (- N i) 1) (select a_copy (- (- N i) 1)) i (select a i) N i) (= (select a i) (select a_copy (- (- N i) 1))))))
(assert (forall ((i Int) (N Int) (a (Array Int Int)) (a_copy (Array Int Int)) (vabs_0_f_f Int) (vabs_0_s_f_f Int)) (=> (assert_28_5_278_abs01 vabs_0_f_f (select a_copy vabs_0_f_f) vabs_0_s_f_f (select a vabs_0_s_f_f) N i) (assign_29_5_287_abs01 vabs_0_f_f (select a_copy vabs_0_f_f) vabs_0_s_f_f (select a vabs_0_s_f_f) N i))))
(assert (forall ((i Int) (N Int) (a (Array Int Int)) (a_copy (Array Int Int)) (vabs_0_f_f Int) (vabs_0_s_f_f Int)) (=> (assign_29_5_287_abs01 vabs_0_f_f (select a_copy vabs_0_f_f) vabs_0_s_f_f (select a vabs_0_s_f_f) N i) (while_26_1_290_abs01 vabs_0_f_f (select a_copy vabs_0_f_f) vabs_0_s_f_f (select a vabs_0_s_f_f) N (+ i 1)))))
(check-sat)